p cnf 50 93
6 0
-7 0
8 0
9 0
10 0
11 0
-12 0
-13 0
-14 0
-15 0
-1 -2 6 0
-1 -3 7 0
-1 -4 8 0
-1 -5 9 0
-2 -1 6 0
-2 -3 10 0
-2 -4 11 0
-2 -5 12 0
-3 -1 7 0
-3 -2 10 0
-3 -4 13 0
-3 -5 14 0
-4 -1 8 0
-4 -2 11 0
-4 -3 13 0
-4 -5 15 0
-5 -1 9 0
-5 -2 12 0
-5 -3 14 0
-5 -4 15 0
-26 31 0
-27 32 0
-28 33 0
-29 34 0
-30 35 0
-31 36 0
-32 37 0
-33 38 0
-34 39 0
-35 40 0
-36 41 0
-37 42 0
-38 43 0
-39 44 0
-40 45 0
-41 46 0
-42 47 0
-43 48 0
-44 49 0
-45 50 0
26 -1 0
-26 1 0
-27 0
-28 0
-29 0
-30 0
-31 26 2 0
-36 31 3 0
-41 36 4 0
-46 41 5 0
-32 27 26 0
-32 27 2 0
-33 28 27 0
-33 28 2 0
-34 29 28 0
-34 29 2 0
-35 30 29 0
-35 30 2 0
-37 32 31 0
-37 32 3 0
-38 33 32 0
-38 33 3 0
-39 34 33 0
-39 34 3 0
-40 35 34 0
-40 35 3 0
-42 37 36 0
-42 37 4 0
-43 38 37 0
-43 38 4 0
-44 39 38 0
-44 39 4 0
-45 40 39 0
-45 40 4 0
-47 42 41 0
-47 42 5 0
-48 43 42 0
-48 43 5 0
-49 44 43 0
-49 44 5 0
-50 45 44 0
-50 45 5 0
48 0
